<DOCUMENT>
<COLORDEN>-1</COLORDEN>
<TIPOORDEN>-1</TIPOORDEN>
<FILASPAGINA>0</FILASPAGINA>
<VISIBILIDAD>
	<VISIBLECOLUMNA name="idarticulo" >0</VISIBLECOLUMNA>
	<VISIBLECOLUMNA name="codigocompletoarticulo" >1</VISIBLECOLUMNA>
	<VISIBLECOLUMNA name="nomarticulo" >0</VISIBLECOLUMNA>
	<VISIBLECOLUMNA name="numlalbaran" >0</VISIBLECOLUMNA>
	<VISIBLECOLUMNA name="desclalbaran" >1</VISIBLECOLUMNA>
	<VISIBLECOLUMNA name="cantlalbaran" >1</VISIBLECOLUMNA>
	<VISIBLECOLUMNA name="pvplalbaran" >1</VISIBLECOLUMNA>
	<VISIBLECOLUMNA name="totallalbaran" >1</VISIBLECOLUMNA>
	<VISIBLECOLUMNA name="ivalalbaran" >0</VISIBLECOLUMNA>
	<VISIBLECOLUMNA name="reqeqlalbaran" >0</VISIBLECOLUMNA>
	<VISIBLECOLUMNA name="descuentolalbaran" >0</VISIBLECOLUMNA>
	<VISIBLECOLUMNA name="idalbaran" >0</VISIBLECOLUMNA>
	<VISIBLECOLUMNA name="ordenlalbaran" >0</VISIBLECOLUMNA>
</VISIBILIDAD>
<HORIZONTALHEADER>AAAA/wAAAAAAAAABAAAAAQAAAA0AAAAAAAAAAAAAAAANCRgAAAAEAAAADAAAAGQAAAALAAAAZAAAAAMAAABkAAAAAAAAAGQAAAOEAAAADQEBAQAAAAAAAAAAAAAAAABk/////wAAAIQAAAAAAAAABgAAAAAAAAABAAAAAAAAAMgAAAACAAAAAAAAAAAAAAABAAAAAAAAArwAAAAHAAAAAAAAAAAAAAABAAAAAAAAAAAAAAABAAAAAA==</HORIZONTALHEADER>
<COLUMNASHORIZONTALHEADER>AAAA/wAAAAAAAAABAAAAAQAAAAQAAAAAAAAAAAAAAAAEDAAAAAIAAAADAAAAAAAAAAIAAAAAAAABAQAAAAQAAQEAAAAAAAAAAAABAAAAZP////8AAACEAAAAAAAAAAMAAACdAAAAAQAAAAMAAABkAAAAAQAAAAAAAAAAAAAAAgAAAAA=</COLUMNASHORIZONTALHEADER>
<ORDENCOLUMNAS>
	<ORDENCOLUMNA name="idarticulo" >0</ORDENCOLUMNA>
	<ORDENCOLUMNA name="codigocompletoarticulo" >1</ORDENCOLUMNA>
	<ORDENCOLUMNA name="nomarticulo" >2</ORDENCOLUMNA>
	<ORDENCOLUMNA name="numlalbaran" >3</ORDENCOLUMNA>
	<ORDENCOLUMNA name="desclalbaran" >4</ORDENCOLUMNA>
	<ORDENCOLUMNA name="cantlalbaran" >5</ORDENCOLUMNA>
	<ORDENCOLUMNA name="pvplalbaran" >6</ORDENCOLUMNA>
	<ORDENCOLUMNA name="totallalbaran" >7</ORDENCOLUMNA>
	<ORDENCOLUMNA name="ivalalbaran" >8</ORDENCOLUMNA>
	<ORDENCOLUMNA name="reqeqlalbaran" >9</ORDENCOLUMNA>
	<ORDENCOLUMNA name="descuentolalbaran" >10</ORDENCOLUMNA>
	<ORDENCOLUMNA name="idalbaran" >11</ORDENCOLUMNA>
	<ORDENCOLUMNA name="ordenlalbaran" >12</ORDENCOLUMNA>
</ORDENCOLUMNAS>
<VISIBILIDADMENU>1</VISIBILIDADMENU>
</DOCUMENT>
